* ENCODING=ISO-8859-1
NAME          CPLEX
ROWS
 N  obj1    
 G  c1      
 G  c2      
 G  c3      
 G  c4      
 G  c5      
 G  c6      
 G  c7      
 G  c8      
 G  c9      
 G  c10     
 G  c11     
 G  c12     
 G  c13     
 G  c14     
 G  c15     
 G  c16     
 G  c17     
 G  c18     
 G  c19     
 G  c20     
 G  c21     
 G  c22     
 G  c23     
 G  c24     
 G  c25     
 G  c26     
 G  c27     
 G  c28     
 G  c29     
 G  c30     
 G  c31     
 G  c32     
 G  c33     
 G  c34     
 G  c35     
 G  c36     
 G  c37     
 G  c38     
 G  c39     
 G  c40     
 G  c41     
 G  c42     
 G  c43     
 G  c44     
 G  c45     
 G  c46     
 G  c47     
 G  c48     
 G  c49     
 G  c50     
COLUMNS
    MARK0000  'MARKER'                 'INTORG'
    x1        obj1                            1
    x1        c5                            609
    x1        c12                           759
    x2        obj1                            1
    x2        c49                           147
    x3        obj1                            1
    x3        c2                            772
    x3        c20                           940
    x3        c25                           605
    x3        c26                           346
    x3        c36                           519
    x3        c38                           312
    x3        c39                           308
    x3        c45                           418
    x3        c47                           348
    x4        obj1                            1
    x4        c1                            535
    x4        c3                            334
    x4        c10                           833
    x4        c15                           130
    x4        c17                           535
    x4        c18                           300
    x4        c22                           165
    x4        c24                           740
    x4        c26                           430
    x4        c33                           871
    x4        c43                           270
    x4        c50                           432
    x5        obj1                            1
    x5        c7                            361
    x5        c9                            592
    x5        c16                           402
    x6        obj1                            1
    x6        c9                            196
    x6        c23                           486
    x6        c31                           757
    x6        c50                           425
    x7        obj1                            1
    x7        c18                           292
    x7        c22                           399
    x7        c26                           502
    x7        c27                           218
    x7        c35                           388
    x7        c42                           550
    x7        c44                           673
    x8        obj1                            1
    x8        c12                           177
    x8        c30                           349
    x8        c39                           343
    x8        c46                           182
    x9        obj1                            1
    x9        c13                           768
    x9        c16                           662
    x9        c21                           847
    x9        c44                           694
    x9        c49                           264
    x10       obj1                            1
    x10       c3                            873
    x10       c10                           228
    x10       c14                           415
    x10       c16                           993
    x10       c19                           999
    x10       c30                           591
    x10       c34                           863
    x10       c45                           185
    x11       obj1                            1
    x11       c12                           778
    x11       c14                           651
    x11       c17                           551
    x11       c34                           381
    x11       c40                           601
    x12       obj1                            1
    x12       c2                            936
    x12       c6                            880
    x12       c14                           216
    x12       c21                           125
    x12       c34                           197
    x12       c50                           728
    x13       obj1                            1
    x13       c5                            371
    x13       c10                           818
    x13       c19                           117
    x13       c32                           340
    x13       c39                           381
    x13       c40                           673
    x14       obj1                            1
    x14       c18                           545
    x14       c23                           448
    x14       c26                           535
    x14       c27                           232
    x15       obj1                            1
    x15       c34                           511
    x15       c43                           250
    x16       obj1                            1
    x16       c13                           347
    x16       c33                           357
    x16       c39                           834
    x17       obj1                            1
    x17       c15                           408
    x17       c25                           391
    x17       c31                           398
    x17       c37                           674
    x18       obj1                            1
    x18       c6                            873
    x18       c27                           623
    x18       c38                           214
    x18       c47                           627
    x19       obj1                            1
    x19       c5                            126
    x19       c9                            308
    x19       c31                           904
    x19       c36                           881
    x19       c44                           291
    x19       c48                           665
    x20       obj1                            1
    x20       c4                            914
    x20       c7                            546
    x20       c18                           681
    x20       c20                           207
    x20       c25                           446
    x20       c33                           214
    x20       c49                           338
    x21       obj1                            1
    x21       c1                            565
    x21       c22                           341
    x21       c37                           494
    x21       c47                           115
    x22       obj1                            1
    x22       c2                            175
    x22       c19                           443
    x22       c24                           110
    x22       c26                           577
    x22       c28                           176
    x22       c29                           576
    x22       c32                           827
    x22       c36                           361
    x23       obj1                            1
    x23       c21                           228
    x23       c22                           356
    x23       c44                           498
    x23       c50                           257
    x24       obj1                            1
    x24       c7                            338
    x24       c21                           350
    x24       c40                           577
    x24       c42                           197
    x24       c44                           947
    x25       obj1                            1
    x25       c1                            372
    x25       c5                            216
    x25       c9                            396
    x25       c17                           829
    x25       c50                           736
    x26       obj1                            1
    x26       c1                            198
    x26       c11                           193
    x26       c26                           710
    x26       c32                           596
    x26       c33                           978
    x26       c36                           759
    x26       c38                           174
    x26       c46                           656
    x27       obj1                            1
    x27       c4                            791
    x27       c8                            194
    x27       c15                           609
    x27       c20                           824
    x27       c22                           367
    x28       obj1                            1
    x28       c15                           237
    x28       c32                           331
    x28       c37                           871
    x28       c44                           505
    x28       c46                           321
    x28       c49                           185
    x29       obj1                            1
    x29       c3                            638
    x29       c29                           503
    x29       c40                           664
    x30       obj1                            1
    x30       c5                            597
    x30       c22                           179
    x30       c25                           898
    x30       c27                           719
    x30       c34                           664
    x30       c35                           313
    x30       c37                           296
    x30       c42                           403
    x30       c45                           342
    x31       obj1                            1
    x31       c19                           551
    x31       c22                           760
    x31       c23                           582
    x31       c27                           428
    x31       c28                           298
    x31       c30                           305
    x31       c34                           456
    x31       c48                           289
    x32       obj1                            1
    x32       c24                           940
    x32       c30                           144
    x32       c31                           153
    x32       c37                           241
    x32       c47                           454
    x33       obj1                            1
    x33       c2                            478
    x33       c16                           214
    x33       c40                           252
    x33       c42                           732
    x33       c49                           912
    x34       obj1                            1
    x34       c4                            198
    x34       c11                           235
    x34       c28                           131
    x34       c30                           953
    x34       c35                           540
    x34       c36                           395
    x34       c44                           791
    x34       c47                           415
    x34       c49                           207
    x35       obj1                            1
    x35       c8                            806
    x35       c14                           789
    x35       c21                           253
    x35       c30                           418
    x35       c38                           204
    x36       obj1                            1
    x36       c6                            912
    x36       c8                            815
    x36       c10                           850
    x36       c17                           591
    x36       c18                           302
    x36       c36                           674
    x36       c45                           568
    x36       c47                           658
    x37       obj1                            1
    x37       c9                            863
    x37       c19                           386
    x37       c39                           498
    x37       c46                           857
    x38       obj1                            1
    x38       c10                           448
    x38       c14                           838
    x38       c15                           777
    x38       c37                           983
    x38       c47                           904
    x39       obj1                            1
    x39       c4                            970
    x39       c18                           775
    x39       c19                           101
    x39       c34                           906
    x39       c36                           564
    x39       c48                           353
    x40       obj1                            1
    x40       c4                            834
    x40       c12                           651
    x40       c16                           981
    x40       c21                           926
    x40       c25                           348
    x40       c30                           430
    x40       c37                           339
    x40       c39                           774
    x40       c45                           783
    x41       obj1                            1
    x41       c1                            443
    x41       c2                            618
    x41       c5                            941
    x41       c16                           777
    x41       c18                           315
    x41       c31                           561
    x41       c32                           296
    x41       c41                           370
    x42       obj1                            1
    x42       c25                           288
    x42       c26                           788
    x42       c31                           687
    x43       obj1                            1
    x43       c2                            627
    x43       c10                           981
    x43       c11                           204
    x43       c29                           298
    x43       c48                           699
    x43       c50                           815
    x44       obj1                            1
    x44       c12                           593
    x44       c32                           929
    x44       c38                           442
    x44       c46                           985
    x45       obj1                            1
    x45       c1                            478
    x45       c7                            988
    x45       c38                           474
    x45       c42                           965
    x46       obj1                            1
    x46       c39                           466
    x47       obj1                            1
    x47       c6                            831
    x47       c20                           862
    x47       c24                           713
    x47       c32                           356
    x47       c41                           113
    x47       c43                           976
    x48       obj1                            1
    x48       c46                           562
    x49       obj1                            1
    x49       c2                            754
    x49       c9                            921
    x49       c13                           627
    x49       c24                           971
    x50       obj1                            1
    x50       c15                           877
    x50       c25                           274
    x50       c33                           411
    x50       c41                           177
    MARK0001  'MARKER'                 'INTEND'
RHS
    rhs       c1                           1296
    rhs       c2                           2180
    rhs       c3                            923
    rhs       c4                           1854
    rhs       c5                           1430
    rhs       c6                           1748
    rhs       c7                           1117
    rhs       c8                            908
    rhs       c9                           1638
    rhs       c10                          2079
    rhs       c11                           316
    rhs       c12                          1479
    rhs       c13                           871
    rhs       c14                          1455
    rhs       c15                          1519
    rhs       c16                          2015
    rhs       c17                          1253
    rhs       c18                          1605
    rhs       c19                          1299
    rhs       c20                          1417
    rhs       c21                          1365
    rhs       c22                          1284
    rhs       c23                           758
    rhs       c24                          1737
    rhs       c25                          1625
    rhs       c26                          1944
    rhs       c27                          1110
    rhs       c28                           303
    rhs       c29                           689
    rhs       c30                          1595
    rhs       c31                          1730
    rhs       c32                          1838
    rhs       c33                          1416
    rhs       c34                          1989
    rhs       c35                           621
    rhs       c36                          2077
    rhs       c37                          1949
    rhs       c38                           910
    rhs       c39                          1802
    rhs       c40                          1384
    rhs       c41                           330
    rhs       c42                          1424
    rhs       c43                           748
    rhs       c44                          2200
    rhs       c45                          1148
    rhs       c46                          1782
    rhs       c47                          1761
    rhs       c48                          1003
    rhs       c49                          1027
    rhs       c50                          1697
BOUNDS
 LI bnd       x1        0
 LI bnd       x2        0
 LI bnd       x3        0
 LI bnd       x4        0
 LI bnd       x5        0
 LI bnd       x6        0
 LI bnd       x7        0
 LI bnd       x8        0
 LI bnd       x9        0
 LI bnd       x10       0
 LI bnd       x11       0
 LI bnd       x12       0
 LI bnd       x13       0
 LI bnd       x14       0
 LI bnd       x15       0
 LI bnd       x16       0
 LI bnd       x17       0
 LI bnd       x18       0
 LI bnd       x19       0
 LI bnd       x20       0
 LI bnd       x21       0
 LI bnd       x22       0
 LI bnd       x23       0
 LI bnd       x24       0
 LI bnd       x25       0
 LI bnd       x26       0
 LI bnd       x27       0
 LI bnd       x28       0
 LI bnd       x29       0
 LI bnd       x30       0
 LI bnd       x31       0
 LI bnd       x32       0
 LI bnd       x33       0
 LI bnd       x34       0
 LI bnd       x35       0
 LI bnd       x36       0
 LI bnd       x37       0
 LI bnd       x38       0
 LI bnd       x39       0
 LI bnd       x40       0
 LI bnd       x41       0
 LI bnd       x42       0
 LI bnd       x43       0
 LI bnd       x44       0
 LI bnd       x45       0
 LI bnd       x46       0
 LI bnd       x47       0
 LI bnd       x48       0
 LI bnd       x49       0
 LI bnd       x50       0
ENDATA
